Mg1 Ti1 Al46 O72                        
   1.00000000000000     
     9.6125392913999992    0.0000000000000000    0.0000000000000000
    -4.8062685372000002    8.3247038611999997    0.0000000000000000
     0.0000000000000000    0.0000000000000000   13.1191129683999996
   Al   O    Mg   Ti
    46    72     1     1
Direct
  0.1667388950395775  0.3375880931356046  0.0156039582952568
  0.1688943532348725  0.8319753827069216  0.0171953869291720
  0.6672229271006376  0.3343462260104506  0.0172998642355679
  0.6636573556688979  0.8310133860699737  0.0174902339739018
  0.1672983071805927  0.3363157071553020  0.3161882813520889
  0.1658862022831379  0.8293693366152092  0.3163715318962647
  0.6686570851502354  0.3339806529699003  0.3153914463999893
  0.6660124140282548  0.8323860075754216  0.3163254470378178
  0.0002983010223008  0.4997626876783873  0.1479235128825795
  0.4978260283414043 -0.0000760529887042  0.1471107175845097
  0.4989483225559030  0.4984944676112367  0.1478021507587163
  0.0011431289803518  0.9992107273542428  0.3548969224522466
  0.3335404655726568  0.6668057028799800  0.1852476435581515
  0.8321985221416497  0.1676689912513935  0.1856341241915584
  0.8319212705911037  0.6636764215726907  0.1849524049228309
  0.9994847789650249  0.4993516035241504  0.3526534415503826
  0.5016442784089190  0.0012294498827548  0.3530431290514037
  0.4983346323039480  0.4997698873147390  0.3523340167469175
  0.9996568686089486  0.9996597536734056  0.6480929881030953
  0.0001249832193882  0.4999033576680305  0.6479536415355002
  0.5000412360113023 -0.0002640027874202  0.6475205502205720
  0.5001360410147946  0.5002555457598239  0.6476251727988697
  0.3335620311482481  0.1666857890895647  0.4816251067706289
  0.3333964896284501  0.6675658429170765  0.4820087470381276
  0.8347141703544467  0.1668283868803012  0.4821033172455624
  0.8317204194471732  0.6650984940851479  0.4822390762473649
  0.1675330280979177  0.3343699794128067  0.5197663370304835
  0.1652077496463873  0.8328859093813133  0.5199718212470064
  0.6669658443868975  0.3322278689862679  0.5194073778280377
  0.6667446092885353  0.8332253263167135  0.5198605474058321
  0.3333970275641809  0.1667212496637197  0.6855271709144672
  0.3331340734175816  0.6666058283457158  0.6854797028254749
  0.8333923420597713  0.1668156534791740  0.6856227888563381
  0.8334393571955198  0.6663969588498055  0.6858371824842164
  0.3355931938648116  0.1682638571302940  0.9821958810468021
  0.3337591108364398  0.6672225611337410  0.9805644747526276
  0.8309259480776315  0.1661711161265843  0.9795211041612268
  0.8344311227476141  0.6661305543238881  0.9801409442958680
  0.1674023739988734  0.3332713444162635  0.8131927922692878
  0.1659909542099138  0.8328313470173103  0.8138595900256925
  0.6665379756699459  0.3332124906599690  0.8134204674514420
  0.6666406698740176  0.8342479094777950  0.8136398143746862
  0.0005124204614758  0.0006386335871914  0.8522240862743030
 -0.0000555898481762  0.4996089056139740  0.8511726877572524
  0.4987054994266810 -0.0000068533672944  0.8511018188651049
  0.5003951669201905  0.5002067427509329  0.8513845213792698
  0.1469011388352276  0.9912818530508211  0.2594136295626153
  0.1532059605551183  0.5017186730414442  0.2505462969665725
  0.6550621985154772  0.9981105584700742  0.2494544129469157
  0.6524117548899447  0.4986559777465093  0.2500283796092568
  0.1840517070910862  0.1750990943450919  0.0755859336317503
  0.1803756855494602  0.6647929875522958  0.0826722382306987
  0.6780161213490977  0.1681913829903300  0.0834914771986833
  0.6804349065333934  0.6667460113390871  0.0831290873089131
  0.9969002901425822  0.1574271345844866  0.2552582559173414
  0.9986670298750334  0.6512642857002695  0.2506564597994324
  0.5127014636932826  0.1509405274360858  0.2534476249630764
  0.5016650665169975  0.6570098520433737  0.2496031285441906
  0.3340409796963754  0.0101014023488983  0.0792283829595722
  0.3338345598834697  0.5145756185963913  0.0825523312061985
  0.8201040938626778  0.0147010831293910  0.0800386498794673
  0.8323032011183772  0.5098588063436861  0.0833777725022120
  0.3483307126129166  0.3596391320909177  0.2530172328859842
  0.3467354446448192  0.8464619953610386  0.2501260449221049
  0.8482978521806855  0.3477443162959728  0.2508575758668040
  0.8426127928686512  0.8411967835022391  0.2525206155975352
  0.4918757738211793  0.3266599022276949  0.0779395877856333
  0.4849073141959541  0.8191511588870866  0.0823313091238625
  0.9859430645127982  0.3194956809373405  0.0830715714707796
  0.9850983395949898  0.8061515548745788  0.0802950465572001
  0.4862211226723667  0.1663671572735699  0.5834978535626509
  0.4866065682984998  0.6672136014886421  0.5837963745452635
  0.9868361498656499  0.1667938368113266  0.5837360672086515
  0.9858525617952455  0.6658534826686116  0.5842848882364117
  0.0143670743668101  0.3350201598754384  0.4184590284486334
  0.0116426116001253  0.8308757034862707  0.4201367731779070
  0.5134719116401415  0.3322585405396385  0.4165607592587963
  0.5138596317849833  0.8340596817287942  0.4173632799640023
  0.3338064475463370  0.3199400549510927  0.5836760115637042
  0.3329832937186194  0.8198034530948388  0.5832509371573877
  0.8337685745808930  0.3196980746487649  0.5841078577217428
  0.8325750866690357  0.8190083735784455  0.5842453457815449
  0.1675408942172481  0.1816375478156901  0.4182407991726266
  0.1661158055919909  0.6797165019160002  0.4172875554644236
  0.6686892162710686  0.1800924324185171  0.4190649943960947
  0.6649243580824878  0.6788062625670142  0.4178572542340870
  0.1800964364359839  0.0136545558950030  0.5838474452542067
  0.1804405655739421  0.5140549325309001  0.5840524019498076
  0.6805766703440652  0.0133528516198376  0.5838659463708560
  0.6799391912896036  0.5128716285683376  0.5833827604618210
  0.3200281448662523  0.4883588303951042  0.4189572457757308
  0.3202336049711950  0.9859274054438879  0.4181310083852202
  0.8194845241054131  0.4858615106549430  0.4172687696668427
  0.8200054875553366  0.9854187038302162  0.4181533184762889
  0.3202738994143086  0.3345081920290010  0.9139609338684682
  0.3192851627659315  0.8315374144100772  0.9146017128446295
  0.8196445155397104  0.3333069512798218  0.9157059290948938
  0.8199724680051993  0.8342939468866509  0.9168529093153276
  0.3465213899380795 -0.0003030559292343  0.7494490580419475
  0.3472630811758932  0.5004877464335682  0.7492264381352988
  0.8470419645770919  0.0001304109320861  0.7496677354497415
  0.8467862873456830  0.4993838860520413  0.7494153979677428
  0.1670533934480177  0.4872141264718405  0.9157669501156178
  0.1666781925544541  0.9862343731991300  0.9159590325184893
  0.6687546973448223  0.4882358377636783  0.9143931860092925
  0.6645826619087872  0.9862421592923393  0.9143142580142224
  0.0004137770090428  0.3470319538475800  0.7497169997950983
  0.9995676103519180  0.8468022494583139  0.7499106870219029
  0.5004569474954209  0.3472942353603919  0.7491161249386533
  0.4997187433124656  0.8468043221667472  0.7490288304290733
  0.0119863160829932  0.1809622636945017  0.9150595798720198
  0.0138082531789389  0.6789384471814073  0.9146248676802790
  0.5141011476317634  0.1810345208738269  0.9148260937244957
  0.5136708109419529  0.6803301436111528  0.9160026847888577
  0.1530147332386559  0.1528927554273178  0.7494967046777359
  0.1530191274748939  0.6529630364396606  0.7492831134259001
  0.6528773230999078  0.1532103576777317  0.7490718641469979
  0.6533115033597940  0.6535366994743017  0.7498034254839688
  0.3364364928379150  0.1679218318606259  0.1907434118055255
  0.0055186296850194  0.0056908544977011  0.1455321611378102
 
  0.00000000E+00  0.00000000E+00  0.00000000E+00
  0.00000000E+00  0.00000000E+00  0.00000000E+00
  0.00000000E+00  0.00000000E+00  0.00000000E+00
  0.00000000E+00  0.00000000E+00  0.00000000E+00
  0.00000000E+00  0.00000000E+00  0.00000000E+00
  0.00000000E+00  0.00000000E+00  0.00000000E+00
  0.00000000E+00  0.00000000E+00  0.00000000E+00
  0.00000000E+00  0.00000000E+00  0.00000000E+00
  0.00000000E+00  0.00000000E+00  0.00000000E+00
  0.00000000E+00  0.00000000E+00  0.00000000E+00
  0.00000000E+00  0.00000000E+00  0.00000000E+00
  0.00000000E+00  0.00000000E+00  0.00000000E+00
  0.00000000E+00  0.00000000E+00  0.00000000E+00
  0.00000000E+00  0.00000000E+00  0.00000000E+00
  0.00000000E+00  0.00000000E+00  0.00000000E+00
  0.00000000E+00  0.00000000E+00  0.00000000E+00
  0.00000000E+00  0.00000000E+00  0.00000000E+00
  0.00000000E+00  0.00000000E+00  0.00000000E+00
  0.00000000E+00  0.00000000E+00  0.00000000E+00
  0.00000000E+00  0.00000000E+00  0.00000000E+00
  0.00000000E+00  0.00000000E+00  0.00000000E+00
  0.00000000E+00  0.00000000E+00  0.00000000E+00
  0.00000000E+00  0.00000000E+00  0.00000000E+00
  0.00000000E+00  0.00000000E+00  0.00000000E+00
  0.00000000E+00  0.00000000E+00  0.00000000E+00
  0.00000000E+00  0.00000000E+00  0.00000000E+00
  0.00000000E+00  0.00000000E+00  0.00000000E+00
  0.00000000E+00  0.00000000E+00  0.00000000E+00
  0.00000000E+00  0.00000000E+00  0.00000000E+00
  0.00000000E+00  0.00000000E+00  0.00000000E+00
  0.00000000E+00  0.00000000E+00  0.00000000E+00
  0.00000000E+00  0.00000000E+00  0.00000000E+00
  0.00000000E+00  0.00000000E+00  0.00000000E+00
  0.00000000E+00  0.00000000E+00  0.00000000E+00
  0.00000000E+00  0.00000000E+00  0.00000000E+00
  0.00000000E+00  0.00000000E+00  0.00000000E+00
  0.00000000E+00  0.00000000E+00  0.00000000E+00
  0.00000000E+00  0.00000000E+00  0.00000000E+00
  0.00000000E+00  0.00000000E+00  0.00000000E+00
  0.00000000E+00  0.00000000E+00  0.00000000E+00
  0.00000000E+00  0.00000000E+00  0.00000000E+00
  0.00000000E+00  0.00000000E+00  0.00000000E+00
  0.00000000E+00  0.00000000E+00  0.00000000E+00
  0.00000000E+00  0.00000000E+00  0.00000000E+00
  0.00000000E+00  0.00000000E+00  0.00000000E+00
  0.00000000E+00  0.00000000E+00  0.00000000E+00
  0.00000000E+00  0.00000000E+00  0.00000000E+00
  0.00000000E+00  0.00000000E+00  0.00000000E+00
  0.00000000E+00  0.00000000E+00  0.00000000E+00
  0.00000000E+00  0.00000000E+00  0.00000000E+00
  0.00000000E+00  0.00000000E+00  0.00000000E+00
  0.00000000E+00  0.00000000E+00  0.00000000E+00
  0.00000000E+00  0.00000000E+00  0.00000000E+00
  0.00000000E+00  0.00000000E+00  0.00000000E+00
  0.00000000E+00  0.00000000E+00  0.00000000E+00
  0.00000000E+00  0.00000000E+00  0.00000000E+00
  0.00000000E+00  0.00000000E+00  0.00000000E+00
  0.00000000E+00  0.00000000E+00  0.00000000E+00
  0.00000000E+00  0.00000000E+00  0.00000000E+00
  0.00000000E+00  0.00000000E+00  0.00000000E+00
  0.00000000E+00  0.00000000E+00  0.00000000E+00
  0.00000000E+00  0.00000000E+00  0.00000000E+00
  0.00000000E+00  0.00000000E+00  0.00000000E+00
  0.00000000E+00  0.00000000E+00  0.00000000E+00
  0.00000000E+00  0.00000000E+00  0.00000000E+00
  0.00000000E+00  0.00000000E+00  0.00000000E+00
  0.00000000E+00  0.00000000E+00  0.00000000E+00
  0.00000000E+00  0.00000000E+00  0.00000000E+00
  0.00000000E+00  0.00000000E+00  0.00000000E+00
  0.00000000E+00  0.00000000E+00  0.00000000E+00
  0.00000000E+00  0.00000000E+00  0.00000000E+00
  0.00000000E+00  0.00000000E+00  0.00000000E+00
  0.00000000E+00  0.00000000E+00  0.00000000E+00
  0.00000000E+00  0.00000000E+00  0.00000000E+00
  0.00000000E+00  0.00000000E+00  0.00000000E+00
  0.00000000E+00  0.00000000E+00  0.00000000E+00
  0.00000000E+00  0.00000000E+00  0.00000000E+00
  0.00000000E+00  0.00000000E+00  0.00000000E+00
  0.00000000E+00  0.00000000E+00  0.00000000E+00
  0.00000000E+00  0.00000000E+00  0.00000000E+00
  0.00000000E+00  0.00000000E+00  0.00000000E+00
  0.00000000E+00  0.00000000E+00  0.00000000E+00
  0.00000000E+00  0.00000000E+00  0.00000000E+00
  0.00000000E+00  0.00000000E+00  0.00000000E+00
  0.00000000E+00  0.00000000E+00  0.00000000E+00
  0.00000000E+00  0.00000000E+00  0.00000000E+00
  0.00000000E+00  0.00000000E+00  0.00000000E+00
  0.00000000E+00  0.00000000E+00  0.00000000E+00
  0.00000000E+00  0.00000000E+00  0.00000000E+00
  0.00000000E+00  0.00000000E+00  0.00000000E+00
  0.00000000E+00  0.00000000E+00  0.00000000E+00
  0.00000000E+00  0.00000000E+00  0.00000000E+00
  0.00000000E+00  0.00000000E+00  0.00000000E+00
  0.00000000E+00  0.00000000E+00  0.00000000E+00
  0.00000000E+00  0.00000000E+00  0.00000000E+00
  0.00000000E+00  0.00000000E+00  0.00000000E+00
  0.00000000E+00  0.00000000E+00  0.00000000E+00
  0.00000000E+00  0.00000000E+00  0.00000000E+00
  0.00000000E+00  0.00000000E+00  0.00000000E+00
  0.00000000E+00  0.00000000E+00  0.00000000E+00
  0.00000000E+00  0.00000000E+00  0.00000000E+00
  0.00000000E+00  0.00000000E+00  0.00000000E+00
  0.00000000E+00  0.00000000E+00  0.00000000E+00
  0.00000000E+00  0.00000000E+00  0.00000000E+00
  0.00000000E+00  0.00000000E+00  0.00000000E+00
  0.00000000E+00  0.00000000E+00  0.00000000E+00
  0.00000000E+00  0.00000000E+00  0.00000000E+00
  0.00000000E+00  0.00000000E+00  0.00000000E+00
  0.00000000E+00  0.00000000E+00  0.00000000E+00
  0.00000000E+00  0.00000000E+00  0.00000000E+00
  0.00000000E+00  0.00000000E+00  0.00000000E+00
  0.00000000E+00  0.00000000E+00  0.00000000E+00
  0.00000000E+00  0.00000000E+00  0.00000000E+00
  0.00000000E+00  0.00000000E+00  0.00000000E+00
  0.00000000E+00  0.00000000E+00  0.00000000E+00
  0.00000000E+00  0.00000000E+00  0.00000000E+00
  0.00000000E+00  0.00000000E+00  0.00000000E+00
  0.00000000E+00  0.00000000E+00  0.00000000E+00
  0.00000000E+00  0.00000000E+00  0.00000000E+00
  0.00000000E+00  0.00000000E+00  0.00000000E+00
