generated by phonopy
   1.0
     8.4740000000000002    0.0000000000000000    0.0000000000000000
     0.0000000000000000    8.4740000000000002    0.0000000000000000
     0.0000000000000000    0.0000000000000000    8.4740000000000002
Ba Zr O Ti
   8    7   24    1
Direct
  0.0012179754554861  0.0046024601860053  0.0045958355231537
  0.0003915484496317  0.0043644898690789  0.4996084498476295
  0.0003911673770960  0.4996088266798841  0.0043854645119604
  0.4953792041070941  0.0046227759343701  0.0046189103713198
  0.9993529007335957  0.5006422454546162  0.5006566155001340
  0.4953958091078959  0.0045945946437989  0.4987813850258134
  0.4954081361354885  0.4987799799806305  0.0046079936035457
  0.4956270681630289  0.4996086002854948  0.4996085996852617
  0.2495370693832177  0.2504757425024642  0.7582739071739782
  0.2495257346738494  0.7582741579377228  0.2504613893771919
  0.7417281475420407  0.2504627860873275  0.2504755611674589
  0.2493522893470623  0.7501774722160098  0.7501693178258375
  0.7498296589043090  0.2506457354113177  0.7501773095876161
  0.7498217158987487  0.7501703065275619  0.2506467154598528
  0.7489002654215250  0.7510961561799586  0.7510992566835538
  0.0137518721227077  0.2487902644014338  0.2487611208133380
  0.2513082006144152  0.0011287033803642  0.2486047988492741
  0.2513948831582575  0.2487083198202789  0.0011171658429225
  0.2512048803985599  0.2487713262471842  0.4862452706473273
  0.2512222094102936  0.4862535018272938  0.2487969163274600
  0.4988789771926844  0.2486233249701851  0.2487051724189641
  0.0015342093162680  0.2494940045612821  0.7465426213597371
  0.2505473206293236  0.0003136758481328  0.7463422679526642
  0.0015168828704954  0.7464395139608194  0.2495369831115772
  0.2504850516205693  0.7462667457112944  0.0002914202181070
  0.7537271756372428  0.0002956547236487  0.2495007689110210
  0.7536486172831386  0.2494380000933845  0.0003109145179101
  0.2504701957961159  0.4984834781766232  0.7464121821435590
  0.2505214668203356  0.7465596613030955  0.4984602348411278
  0.4997039006170717  0.2494888018153287  0.7462493180757624
  0.7535835308795885  0.2495397439878770  0.4984798625413235
  0.4996862270926124  0.7463361560707460  0.2494282403944217
  0.7534657783896196  0.4984660996712671  0.2494790832811330
  0.0004810894712946  0.7497175193359779  0.7496587909552407
  0.7503013425418957  0.0007358987729826  0.7496951843732693
  0.7503033169582127  0.7497016175425325  0.0007366884428545
  0.4992592550614718  0.7496972476314571  0.7497012790006085
  0.7503218808430060  0.4995146238572681  0.7497323735389106
  0.7502662753017145  0.7496666150023112  0.4995166979562152
  0.2405567692730695  0.2594431713909473  0.2594479366293871
