Ba Zr  O Ti 
 1.0000000000000000
    12.7105722426999996    0.0000000000000000    0.0000000000000000
     0.0000000000000000   12.7105722426999996    0.0000000000000000
     0.0000000000000000    0.0000000000000000   12.7105722426999996
 Ba  Zr  O   Ti 
  27  26  81   1
Cartesian
  0.0385537264743479  0.0439612041609562  0.0527665040028176
  0.0308312932743455  0.0290708337436046  4.2027797574248469
 -0.0015834201294318 -0.0001245633914742  8.4786163667358814
  0.0315871631997601  4.2096012254041320  0.0368571317449771
  0.0336470703470973  4.1954805582578567  4.1860957563853942
 -0.0015259135372231  4.2385417990415934  8.4709222934953807
  0.0035293646266995  8.4790670991997992  0.0071593567435832
  0.0026245595761540  8.4726231863902406  4.2307873483144158
 12.6996934302338946  8.4749778254118109  8.4748146968803386
  4.2038843747108787  0.0408588994849589  0.0484197657920754
  4.2048559240305377  0.0302435233146258  4.1985357406879231
  4.2390575066658025 -0.0004987712174970  8.4742676987160142
  4.2056230091573585  4.2065028392180093  0.0349985953325312
  4.2002501439087538  4.1961268281119324  4.1856793618374537
  4.2384686962699742  4.2380925179186990  8.4718951018385802
  4.2347886924786664  8.4761710354423077  0.0073649343605611
  4.2347333770876574  8.4713516640579414  4.2305889373146384
  4.2451726280052346  8.4731019206097091  8.4723233769970037
  8.4760442219920478  0.0057761035102333  0.0093504063402427
  8.4745130065305609  0.0032236839168813  4.2313285020366793
  8.4743998597459385 12.7020142665020970  8.4749295615962126
  8.4743144998024764  4.2342103966624620  0.0062733171900667
  8.4739211179679081  4.2299095150736843  4.2268319089484550
  8.4725749573828093  4.2433164569516659  8.4720225131189633
  8.4744467802003101  8.4755461230547233 12.7056566117378615
  8.4729521411939110  8.4723193595373427  4.2392286417378324
  8.4732169516509899  8.4731600251083137  8.4731001517001161
  2.1183409431249243  2.1159455430536824  6.3345393036670785
  2.1189624673003977  2.1215153533833910 10.6128557394133871
  2.1182988157516385  6.3311757648841507  2.1149435844923854
  2.1173125010128198  6.3505783411892160  6.3500851954805926
  2.1181661475303692  6.3559938669566565 10.5922217255917044
  2.1193251062276528 10.6173360207773193  2.1220296759818558
  2.1183022733294075 10.5921801360197261  6.3551601660761285
  2.1190730844277064 10.5968812196449331 10.5969320155964954
  6.3304610223230569  2.1182483816284376  2.1174405512462386
  6.3525546298308688  2.1168304879686897  6.3521055558696107
  6.3533506405873750  2.1189168343852169 10.5943276810892844
  6.3536921548320695  6.3538831813608105  2.1161965373947109
  6.3504778800805095  6.3487726731043299  6.3475920629804836
  6.3514395304130415  6.3530721018385234 10.5942112829301696
  6.3543924919633188 10.5940685915289592  2.1193441518989458
  6.3517144651160811 10.5943415404282355  6.3520310229464485
  6.3509722200221059 10.5977259970360471 10.5982098978054555
 10.6177497546683828  2.1186870069270087  2.1184491946156925
 10.5946801241075406  2.1170999133792532  6.3529655218361221
 10.5946751748787076  2.1198774189287999 10.5945458670317816
 10.5941835522853705  6.3548035938879721  2.1167684246580292
 10.5956186169304534  6.3500895113470088  6.3490044952415525
 10.5958142772286639  6.3526617196081805 10.5955456340912253
 10.5938864860664665 10.5936733644083780  2.1199325696474305
 10.5959937911670394 10.5948475342845718  6.3520442636722185
 10.5965429039213159 10.5980177222315373 10.5985718656733408
  0.0167641537003470  2.1191966249526111  2.1193682729171579
  0.0046513848463351  2.1163699717690601  6.3397621866436404
  0.0052696208366166  2.1192973348251400 10.6086762350831521
 12.7085406830142560  6.3550849086352459  2.1146949961301251
  0.0014954429897002  6.3556539567153223  6.3617049073723564
  0.0016434625750085  6.3584852587974705 10.5876972376364247
 -0.0014698229631185 10.5935437987441485  2.1217607723416205
  0.0021997873751888 10.5905645248101052  6.3593968927811062
  0.0025409826561444 10.5889313369348610 10.5870697702899630
  4.2208991741698076  2.1191583436084884  2.1178286971628988
  4.2321239803324531  2.1159597810292636  6.3386948893801929
  4.2324988769468002  2.1208810884428484 10.6076768939051025
  4.2390158781537428  6.3527747237889471  2.1155824975200708
  4.2339578018077564  6.3568282009362296  6.3588461635349045
  4.2341575845865957  6.3593873258700500 10.5830641553993576
  4.2397430872563611 10.5944110919081957  2.1205343040207585
  4.2346375544089696 10.5860161247664664  6.3621826904811138
  4.2343117888103530 10.5908189147255509 10.5888341272139801
  8.4746805878415383  2.1179669219680877  2.1179378850590669
  8.4738095623973635  2.1140232549084970  6.3546771680122776
  8.4739381977524939  2.1206188655626601 10.5921491817244462
  8.4738339666907567  6.3563860452099812  2.1160539617869278
  8.4732495180646552  6.3546534659501956  6.3548453874918724
  8.4734288174492285  6.3555661364894203 10.5885386704455584
  8.4741843245702366 10.5926074478284953  2.1200337210338023
  8.4741246807154056 10.5919274747542360  6.3607384796560558
  8.4736930358198670 10.5933651288962096 10.5907280542545390
  2.1194342919991644  0.0227044355775983  2.1297244183142632
  2.1185949998380083  0.0028716046031972  6.3402355658030967
  2.1173144574416947  0.0078742907818890 10.6115493021374618
  2.1174991745757406  4.2157548648074021  2.1084108389544518
  2.1175848600521960  4.2290749006570127  6.3344806866060583
  2.1191882721941893  4.2342142208038123 10.6063803798062057
  2.1202476200893017  8.4745707126783216  2.1187661702493794
  2.1165514868519906  8.4716374372418457  6.3497208334578801
  2.1183287570149854  8.4759083824458621 10.5951766117177471
  6.3564267204711156 12.7082635428197612  2.1178049308630853
  6.3562112949289329  0.0002333275583105  6.3624280697717071
  6.3574136378112582  0.0028659882396599 10.5891475814543679
  6.3579964704645642  4.2393948295092736  2.1138416399806195
  6.3579068459566681  4.2332963594911837  6.3591021672436261
  6.3566626398432113  4.2360743752090828 10.5852281687911809
  6.3522926792321730  8.4741096701998284  2.1199804927181902
  6.3544267327481547  8.4722629436496426  6.3554854980166935
  6.3534891657440173  8.4751133465825355 10.5878382986761697
 10.5925649603702237 -0.0025115029794162  2.1214817252489899
 10.5919895686613277  0.0009314868992437  6.3594138547128605
 10.5879014751065323  0.0032113515943190 10.5858668075338400
 10.5912093986138647  4.2399051082532839  2.1176665213091748
 10.5871386915737471  4.2335462292351309  6.3603326893517114
 10.5897553380526954  4.2358994014591849 10.5876373474677710
 10.5942711031069958  8.4742292040979823  2.1191182848254524
 10.5950852728365135  8.4729533969344200  6.3576856649568123
 10.5923973306533519  8.4747037240471137 10.5902117162361158
  2.1209965485723776  2.1296698122127502  0.0594063742563223
  2.1188021338847012  2.1092210003346246  4.1783351306263006
  2.1199476207436110  2.1195641981637596  8.4740606039106492
  2.1180372140318244  6.3529771655038267 -0.0021774713738154
  2.1169304630930901  6.3454262034715541  4.2331061656873938
  2.1168563836580185  6.3394775738871232  8.4714471183196611
  2.1190699476728581 10.6029089909759300  0.0037122855604281
  2.1203744571881296 10.5958154728606644  4.2387294061786429
  2.1195175685829950 10.6078239930164226  8.4754298065956100
  6.3531408772376068  2.1180887063743961 -0.0010569763528176
  6.3527496009338158  2.1158170575055006  4.2363177342296332
  6.3402770873021606  2.1177215028272647  8.4733009212128536
  6.3578534512874807  6.3624102194088383 -0.0020280887867084
  6.3580165096743082  6.3569648706206241  4.2344818817855749
  6.3542590600246980  6.3539111715692975  8.4713537257837697
  6.3589433951232337 10.5888251851614221  0.0013811111956569
  6.3611885806242245 10.5883591911255319  4.2379086534185957
  6.3526585879118791 10.5946339932953162  8.4749669407858939
 10.5962569221191441  2.1205300129543381 -0.0002285102176547
 10.5950536733111775  2.1188472624009700  4.2372906969476860
 10.6080291396106485  2.1191266837693119  8.4739691479857893
 10.5890292796671428  6.3599988746635692 -0.0008617935838211
 10.5886053057165004  6.3601385892103508  4.2351296479117444
 10.5933757020082133  6.3534195938293028  8.4730451070358281
 10.5870866296522550 10.5873711315545158  0.0015546509197456
 10.5875572817027432 10.5874364169966917  4.2378318034201765
 10.5947459774405583 10.5933767557975820  8.4748191624363578
  2.1188653300039713  2.1188894527756932  2.1184202786240789
